\ Model knapsack_60_1_3
\ LP format - for model browsing. Use MPS format to capture full model detail.
\ Signature: 0xcc69dae0c0472019
Minimize
  - 942 y[0] - 915 y[1] - 583 y[2] - 527 y[3] - 209 y[4] - 469 y[5]
   - 934 y[6] - 1085 y[7] - 475 y[8] - 998 y[9] - 284 y[10] - 490 y[11]
   - 420 y[12] - 398 y[13] - 342 y[14] - 828 y[15] - 884 y[16] - 483 y[17]
   - 845 y[18] - 379 y[19] - 586 y[20] - 1084 y[21] - 462 y[22] - 788 y[23]
   - 539 y[24] - 256 y[25] - 719 y[26] - 795 y[27] - 675 y[28] - 532 y[29]
   - 151 y[30] - 509 y[31] - 108 y[32] - 371 y[33] - 579 y[34] - 715 y[35]
   - 528 y[36] - 439 y[37] - 489 y[38] - 970 y[39] - 548 y[40] - 214 y[41]
   - 1010 y[42] - 392 y[43] - 267 y[44] - 681 y[45] - 673 y[46] - 241 y[47]
   - 515 y[48] - 742 y[49] - 555 y[50] - 159 y[51] - 753 y[52] - 525 y[53]
   - 770 y[54] - 528 y[55] - 468 y[56] - 439 y[57] - 618 y[58] - 753 y[59]
Subject To
 primal_upper: 842 y[0] + 815 y[1] + 483 y[2] + 427 y[3] + 109 y[4]
   + 369 y[5] + 834 y[6] + 985 y[7] + 375 y[8] + 898 y[9] + 184 y[10]
   + 390 y[11] + 320 y[12] + 298 y[13] + 242 y[14] + 728 y[15] + 784 y[16]
   + 383 y[17] + 745 y[18] + 279 y[19] + 486 y[20] + 984 y[21] + 362 y[22]
   + 688 y[23] + 439 y[24] + 156 y[25] + 619 y[26] + 695 y[27] + 575 y[28]
   + 432 y[29] + 51 y[30] + 409 y[31] + 8 y[32] + 271 y[33] + 479 y[34]
   + 615 y[35] + 428 y[36] + 339 y[37] + 389 y[38] + 870 y[39] + 448 y[40]
   + 114 y[41] + 910 y[42] + 292 y[43] + 167 y[44] + 581 y[45] + 573 y[46]
   + 141 y[47] + 415 y[48] + 642 y[49] + 455 y[50] + 59 y[51] + 653 y[52]
   + 425 y[53] + 670 y[54] + 428 y[55] + 368 y[56] + 339 y[57] + 518 y[58]
   + 653 y[59] + 84 z[0] + 82 z[1] + 48 z[2] + 43 z[3] + 11 z[4] + 37 z[5]
   + 83 z[6] + 98 z[7] + 38 z[8] + 90 z[9] + 18 z[10] + 39 z[11] + 32 z[12]
   + 30 z[13] + 24 z[14] + 73 z[15] + 78 z[16] + 38 z[17] + 74 z[18]
   + 28 z[19] + 49 z[20] + 98 z[21] + 36 z[22] + 69 z[23] + 44 z[24]
   + 16 z[25] + 62 z[26] + 70 z[27] + 58 z[28] + 43 z[29] + 5 z[30]
   + 41 z[31] + z[32] + 27 z[33] + 48 z[34] + 62 z[35] + 43 z[36]
   + 34 z[37] + 39 z[38] + 87 z[39] + 45 z[40] + 11 z[41] + 91 z[42]
   + 29 z[43] + 17 z[44] + 58 z[45] + 57 z[46] + 14 z[47] + 42 z[48]
   + 64 z[49] + 46 z[50] + 6 z[51] + 65 z[52] + 42 z[53] + 67 z[54]
   + 43 z[55] + 37 z[56] + 34 z[57] + 52 z[58] + 65 z[59] <= 7159
 primal_lower0: - 10 y[0] - 41 y[1] - 107 y[2] - 13 y[3] - 67 y[4] - 7 y[5]
   - 37 y[6] - 56 y[8] - 110 y[9] - 72 y[10] - 31 y[11] - 42 y[12]
   - 8 y[13] - 67 y[14] - 65 y[15] - 102 y[16] - 86 y[17] - 79 y[18]
   - 46 y[19] - 67 y[20] - 21 y[21] - 20 y[22] - 13 y[23] - 40 y[24]
   - 112 y[25] - 68 y[26] - 30 y[27] - 41 y[28] - 73 y[29] - 99 y[30]
   - 60 y[31] - 72 y[32] - 73 y[33] - 99 y[34] - 97 y[35] - 83 y[36]
   - 64 y[37] - 67 y[38] - 21 y[39] - 84 y[40] - 113 y[41] - 67 y[42]
   - 23 y[43] - 11 y[44] - 71 y[45] - 103 y[46] - 19 y[47] - 82 y[48]
   - 11 y[49] - 118 y[50] - 12 y[51] - 53 y[52] - 78 y[53] - 96 y[54]
   - 59 y[55] - 35 y[56] - 31 y[57] - 12 y[58] - 94 y[59] + 385 u[0]
   + 963 u[1] + 949 u[2] + 764 u[3] + 819 u[4] + 277 u[5] + 724 u[6]
   + 193 u[7] + 173 u[8] + 63 u[9] + 475 u[10] + 910 u[11] + 270 u[12]
   + 839 u[13] + 605 u[14] + 889 u[15] + 774 u[16] + 76 u[17] + 715 u[18]
   + 280 u[19] + 285 u[20] + 908 u[21] + 100 u[22] + 272 u[23] + 509 u[24]
   + 168 u[25] + 197 u[26] + 815 u[27] + 158 u[28] + 868 u[29] + 742 u[30]
   + 489 u[31] + 734 u[32] + 99 u[33] + 313 u[34] + 231 u[35] + 562 u[36]
   + 880 u[37] + 311 u[38] + 439 u[39] + 590 u[40] + 103 u[41] + 993 u[42]
   + 148 u[43] + 405 u[44] + 865 u[45] + 944 u[46] + 693 u[47] + 566 u[48]
   + 86 u[49] + 49 u[50] + 644 u[51] + 235 u[52] + 741 u[53] + 289 u[54]
   + 941 u[55] + 487 u[56] + 415 u[57] + 168 u[58] + 494 u[59] <= 7519
 mccormick1[0]: - u[0] + z[0] <= 0
 mccormick1[1]: - u[1] + z[1] <= 0
 mccormick1[2]: - u[2] + z[2] <= 0
 mccormick1[3]: - u[3] + z[3] <= 0
 mccormick1[4]: - u[4] + z[4] <= 0
 mccormick1[5]: - u[5] + z[5] <= 0
 mccormick1[6]: - u[6] + z[6] <= 0
 mccormick1[7]: - u[7] + z[7] <= 0
 mccormick1[8]: - u[8] + z[8] <= 0
 mccormick1[9]: - u[9] + z[9] <= 0
 mccormick1[10]: - u[10] + z[10] <= 0
 mccormick1[11]: - u[11] + z[11] <= 0
 mccormick1[12]: - u[12] + z[12] <= 0
 mccormick1[13]: - u[13] + z[13] <= 0
 mccormick1[14]: - u[14] + z[14] <= 0
 mccormick1[15]: - u[15] + z[15] <= 0
 mccormick1[16]: - u[16] + z[16] <= 0
 mccormick1[17]: - u[17] + z[17] <= 0
 mccormick1[18]: - u[18] + z[18] <= 0
 mccormick1[19]: - u[19] + z[19] <= 0
 mccormick1[20]: - u[20] + z[20] <= 0
 mccormick1[21]: - u[21] + z[21] <= 0
 mccormick1[22]: - u[22] + z[22] <= 0
 mccormick1[23]: - u[23] + z[23] <= 0
 mccormick1[24]: - u[24] + z[24] <= 0
 mccormick1[25]: - u[25] + z[25] <= 0
 mccormick1[26]: - u[26] + z[26] <= 0
 mccormick1[27]: - u[27] + z[27] <= 0
 mccormick1[28]: - u[28] + z[28] <= 0
 mccormick1[29]: - u[29] + z[29] <= 0
 mccormick1[30]: - u[30] + z[30] <= 0
 mccormick1[31]: - u[31] + z[31] <= 0
 mccormick1[32]: - u[32] + z[32] <= 0
 mccormick1[33]: - u[33] + z[33] <= 0
 mccormick1[34]: - u[34] + z[34] <= 0
 mccormick1[35]: - u[35] + z[35] <= 0
 mccormick1[36]: - u[36] + z[36] <= 0
 mccormick1[37]: - u[37] + z[37] <= 0
 mccormick1[38]: - u[38] + z[38] <= 0
 mccormick1[39]: - u[39] + z[39] <= 0
 mccormick1[40]: - u[40] + z[40] <= 0
 mccormick1[41]: - u[41] + z[41] <= 0
 mccormick1[42]: - u[42] + z[42] <= 0
 mccormick1[43]: - u[43] + z[43] <= 0
 mccormick1[44]: - u[44] + z[44] <= 0
 mccormick1[45]: - u[45] + z[45] <= 0
 mccormick1[46]: - u[46] + z[46] <= 0
 mccormick1[47]: - u[47] + z[47] <= 0
 mccormick1[48]: - u[48] + z[48] <= 0
 mccormick1[49]: - u[49] + z[49] <= 0
 mccormick1[50]: - u[50] + z[50] <= 0
 mccormick1[51]: - u[51] + z[51] <= 0
 mccormick1[52]: - u[52] + z[52] <= 0
 mccormick1[53]: - u[53] + z[53] <= 0
 mccormick1[54]: - u[54] + z[54] <= 0
 mccormick1[55]: - u[55] + z[55] <= 0
 mccormick1[56]: - u[56] + z[56] <= 0
 mccormick1[57]: - u[57] + z[57] <= 0
 mccormick1[58]: - u[58] + z[58] <= 0
 mccormick1[59]: - u[59] + z[59] <= 0
 mccormick2[0]: - y[0] + z[0] <= 0
 mccormick2[1]: - y[1] + z[1] <= 0
 mccormick2[2]: - y[2] + z[2] <= 0
 mccormick2[3]: - y[3] + z[3] <= 0
 mccormick2[4]: - y[4] + z[4] <= 0
 mccormick2[5]: - y[5] + z[5] <= 0
 mccormick2[6]: - y[6] + z[6] <= 0
 mccormick2[7]: - y[7] + z[7] <= 0
 mccormick2[8]: - y[8] + z[8] <= 0
 mccormick2[9]: - y[9] + z[9] <= 0
 mccormick2[10]: - y[10] + z[10] <= 0
 mccormick2[11]: - y[11] + z[11] <= 0
 mccormick2[12]: - y[12] + z[12] <= 0
 mccormick2[13]: - y[13] + z[13] <= 0
 mccormick2[14]: - y[14] + z[14] <= 0
 mccormick2[15]: - y[15] + z[15] <= 0
 mccormick2[16]: - y[16] + z[16] <= 0
 mccormick2[17]: - y[17] + z[17] <= 0
 mccormick2[18]: - y[18] + z[18] <= 0
 mccormick2[19]: - y[19] + z[19] <= 0
 mccormick2[20]: - y[20] + z[20] <= 0
 mccormick2[21]: - y[21] + z[21] <= 0
 mccormick2[22]: - y[22] + z[22] <= 0
 mccormick2[23]: - y[23] + z[23] <= 0
 mccormick2[24]: - y[24] + z[24] <= 0
 mccormick2[25]: - y[25] + z[25] <= 0
 mccormick2[26]: - y[26] + z[26] <= 0
 mccormick2[27]: - y[27] + z[27] <= 0
 mccormick2[28]: - y[28] + z[28] <= 0
 mccormick2[29]: - y[29] + z[29] <= 0
 mccormick2[30]: - y[30] + z[30] <= 0
 mccormick2[31]: - y[31] + z[31] <= 0
 mccormick2[32]: - y[32] + z[32] <= 0
 mccormick2[33]: - y[33] + z[33] <= 0
 mccormick2[34]: - y[34] + z[34] <= 0
 mccormick2[35]: - y[35] + z[35] <= 0
 mccormick2[36]: - y[36] + z[36] <= 0
 mccormick2[37]: - y[37] + z[37] <= 0
 mccormick2[38]: - y[38] + z[38] <= 0
 mccormick2[39]: - y[39] + z[39] <= 0
 mccormick2[40]: - y[40] + z[40] <= 0
 mccormick2[41]: - y[41] + z[41] <= 0
 mccormick2[42]: - y[42] + z[42] <= 0
 mccormick2[43]: - y[43] + z[43] <= 0
 mccormick2[44]: - y[44] + z[44] <= 0
 mccormick2[45]: - y[45] + z[45] <= 0
 mccormick2[46]: - y[46] + z[46] <= 0
 mccormick2[47]: - y[47] + z[47] <= 0
 mccormick2[48]: - y[48] + z[48] <= 0
 mccormick2[49]: - y[49] + z[49] <= 0
 mccormick2[50]: - y[50] + z[50] <= 0
 mccormick2[51]: - y[51] + z[51] <= 0
 mccormick2[52]: - y[52] + z[52] <= 0
 mccormick2[53]: - y[53] + z[53] <= 0
 mccormick2[54]: - y[54] + z[54] <= 0
 mccormick2[55]: - y[55] + z[55] <= 0
 mccormick2[56]: - y[56] + z[56] <= 0
 mccormick2[57]: - y[57] + z[57] <= 0
 mccormick2[58]: - y[58] + z[58] <= 0
 mccormick2[59]: - y[59] + z[59] <= 0
 mccormick3[0]: y[0] + u[0] - z[0] <= 1
 mccormick3[1]: y[1] + u[1] - z[1] <= 1
 mccormick3[2]: y[2] + u[2] - z[2] <= 1
 mccormick3[3]: y[3] + u[3] - z[3] <= 1
 mccormick3[4]: y[4] + u[4] - z[4] <= 1
 mccormick3[5]: y[5] + u[5] - z[5] <= 1
 mccormick3[6]: y[6] + u[6] - z[6] <= 1
 mccormick3[7]: y[7] + u[7] - z[7] <= 1
 mccormick3[8]: y[8] + u[8] - z[8] <= 1
 mccormick3[9]: y[9] + u[9] - z[9] <= 1
 mccormick3[10]: y[10] + u[10] - z[10] <= 1
 mccormick3[11]: y[11] + u[11] - z[11] <= 1
 mccormick3[12]: y[12] + u[12] - z[12] <= 1
 mccormick3[13]: y[13] + u[13] - z[13] <= 1
 mccormick3[14]: y[14] + u[14] - z[14] <= 1
 mccormick3[15]: y[15] + u[15] - z[15] <= 1
 mccormick3[16]: y[16] + u[16] - z[16] <= 1
 mccormick3[17]: y[17] + u[17] - z[17] <= 1
 mccormick3[18]: y[18] + u[18] - z[18] <= 1
 mccormick3[19]: y[19] + u[19] - z[19] <= 1
 mccormick3[20]: y[20] + u[20] - z[20] <= 1
 mccormick3[21]: y[21] + u[21] - z[21] <= 1
 mccormick3[22]: y[22] + u[22] - z[22] <= 1
 mccormick3[23]: y[23] + u[23] - z[23] <= 1
 mccormick3[24]: y[24] + u[24] - z[24] <= 1
 mccormick3[25]: y[25] + u[25] - z[25] <= 1
 mccormick3[26]: y[26] + u[26] - z[26] <= 1
 mccormick3[27]: y[27] + u[27] - z[27] <= 1
 mccormick3[28]: y[28] + u[28] - z[28] <= 1
 mccormick3[29]: y[29] + u[29] - z[29] <= 1
 mccormick3[30]: y[30] + u[30] - z[30] <= 1
 mccormick3[31]: y[31] + u[31] - z[31] <= 1
 mccormick3[32]: y[32] + u[32] - z[32] <= 1
 mccormick3[33]: y[33] + u[33] - z[33] <= 1
 mccormick3[34]: y[34] + u[34] - z[34] <= 1
 mccormick3[35]: y[35] + u[35] - z[35] <= 1
 mccormick3[36]: y[36] + u[36] - z[36] <= 1
 mccormick3[37]: y[37] + u[37] - z[37] <= 1
 mccormick3[38]: y[38] + u[38] - z[38] <= 1
 mccormick3[39]: y[39] + u[39] - z[39] <= 1
 mccormick3[40]: y[40] + u[40] - z[40] <= 1
 mccormick3[41]: y[41] + u[41] - z[41] <= 1
 mccormick3[42]: y[42] + u[42] - z[42] <= 1
 mccormick3[43]: y[43] + u[43] - z[43] <= 1
 mccormick3[44]: y[44] + u[44] - z[44] <= 1
 mccormick3[45]: y[45] + u[45] - z[45] <= 1
 mccormick3[46]: y[46] + u[46] - z[46] <= 1
 mccormick3[47]: y[47] + u[47] - z[47] <= 1
 mccormick3[48]: y[48] + u[48] - z[48] <= 1
 mccormick3[49]: y[49] + u[49] - z[49] <= 1
 mccormick3[50]: y[50] + u[50] - z[50] <= 1
 mccormick3[51]: y[51] + u[51] - z[51] <= 1
 mccormick3[52]: y[52] + u[52] - z[52] <= 1
 mccormick3[53]: y[53] + u[53] - z[53] <= 1
 mccormick3[54]: y[54] + u[54] - z[54] <= 1
 mccormick3[55]: y[55] + u[55] - z[55] <= 1
 mccormick3[56]: y[56] + u[56] - z[56] <= 1
 mccormick3[57]: y[57] + u[57] - z[57] <= 1
 mccormick3[58]: y[58] + u[58] - z[58] <= 1
 mccormick3[59]: y[59] + u[59] - z[59] <= 1
Bounds
Binaries
 y[0] y[1] y[2] y[3] y[4] y[5] y[6] y[7] y[8] y[9] y[10] y[11] y[12] y[13]
 y[14] y[15] y[16] y[17] y[18] y[19] y[20] y[21] y[22] y[23] y[24] y[25]
 y[26] y[27] y[28] y[29] y[30] y[31] y[32] y[33] y[34] y[35] y[36] y[37]
 y[38] y[39] y[40] y[41] y[42] y[43] y[44] y[45] y[46] y[47] y[48] y[49]
 y[50] y[51] y[52] y[53] y[54] y[55] y[56] y[57] y[58] y[59] u[0] u[1] u[2]
 u[3] u[4] u[5] u[6] u[7] u[8] u[9] u[10] u[11] u[12] u[13] u[14] u[15]
 u[16] u[17] u[18] u[19] u[20] u[21] u[22] u[23] u[24] u[25] u[26] u[27]
 u[28] u[29] u[30] u[31] u[32] u[33] u[34] u[35] u[36] u[37] u[38] u[39]
 u[40] u[41] u[42] u[43] u[44] u[45] u[46] u[47] u[48] u[49] u[50] u[51]
 u[52] u[53] u[54] u[55] u[56] u[57] u[58] u[59] z[0] z[1] z[2] z[3] z[4]
 z[5] z[6] z[7] z[8] z[9] z[10] z[11] z[12] z[13] z[14] z[15] z[16] z[17]
 z[18] z[19] z[20] z[21] z[22] z[23] z[24] z[25] z[26] z[27] z[28] z[29]
 z[30] z[31] z[32] z[33] z[34] z[35] z[36] z[37] z[38] z[39] z[40] z[41]
 z[42] z[43] z[44] z[45] z[46] z[47] z[48] z[49] z[50] z[51] z[52] z[53]
 z[54] z[55] z[56] z[57] z[58] z[59]
End
